NAME : OMNETRUN
COMMENT : 524.61
TYPE : CVRP
DIMENSION : 21
EDGE_WEIGHT_TYPE : EUC_2D
CAPACITY : 21
NODE_COORD_SECTION
1 0.107093 -0.77924
2 91.8718 -311.048
3 162.058 -671.464
4 10.3248 -1601.08
5 52.377 -2304.54
6 73.5514 -3014.41
7 213.786 -3912.97
8 104.208 -4274.74
9 419.95 -137.471
10 495.284 -781.902
11 342.079 -1239.68
12 312.921 -1790.48
13 354.647 -2726.31
14 630.954 -2071.2
15 662.987 -3190.69
16 692.007 -3945.17
17 903.831 -326.577
18 930.304 -1102.78
19 857.905 -1554.75
20 943.816 -2569.1
21 767.401 -4411.55
DEMAND_SECTION
1 0
2 1
3 1
4 1
5 1
6 1
7 1
8 1
9 1
10 1
11 1
12 1
13 1
14 1
15 1
16 1
17 1
18 1
19 1
20 1
21 1
DEPOT_SECTION
1
-1
EOF
